(set-logic QF_FP)
(set-info :source |Random FP created by PyMPF|)
(set-info :category random)
(set-info :status unsat)
(declare-const x Float32)
(assert (= x ((_ to_fp 8 24) #x9D3FFCF7)))
(declare-const y Float32)
(assert (= y ((_ to_fp 8 24) #xDBA0E164)))
(declare-const z Float32)
(assert (= z ((_ to_fp 8 24) #x01D8BE30)))
(declare-const result Float32)
(assert (= result (fp.fma RTZ x y z)))
(assert (not (= result (fp #b0 #b01110010 #b11100010100111001000101))))
(check-sat)
(exit)
